p wcnf 142 71 72 
1 -14 -129 0 
1 124 -61 0 
1 81 52 0 
1 112 -28 0 
1 -55 8 0 
1 14 49 0 
1 -97 107 0 
1 -89 -33 0 
1 103 19 0 
1 -134 82 0 
1 -29 108 0 
1 -35 65 0 
1 137 -96 0 
1 135 95 0 
1 -11 -40 0 
1 1 -104 0 
1 125 58 0 
1 -65 -78 0 
1 104 -52 0 
1 58 -81 0 
1 71 -104 0 
1 116 -99 0 
1 -17 -137 0 
1 -61 -55 0 
1 82 10 0 
1 -8 54 0 
1 -67 -43 0 
1 68 -123 0 
1 77 -66 0 
1 103 -49 0 
1 115 103 0 
1 -90 -4 0 
1 -65 48 0 
1 11 9 0 
1 -69 28 0 
1 70 -140 0 
1 18 -100 0 
1 137 -9 0 
1 -47 -88 0 
1 -97 75 0 
1 22 -23 0 
1 21 -96 0 
1 18 88 0 
1 -98 -52 0 
1 -32 67 0 
1 -119 30 0 
1 -5 -10 0 
1 51 141 0 
1 -80 -87 0 
1 -110 -79 0 
1 2 -112 0 
1 -63 -44 0 
1 -21 65 0 
1 9 -22 0 
1 -90 -66 0 
1 -57 -106 0 
1 -56 72 0 
1 -84 -74 0 
1 -131 33 0 
1 -10 111 0 
1 -1 29 0 
1 -18 82 0 
1 63 -54 0 
1 135 -59 0 
1 32 -16 0 
1 51 -134 0 
1 67 -11 0 
1 -109 55 0 
1 50 6 0 
1 -89 86 0 
1 93 64 0 
